300
500
350
349
348
345
343
342
342
342
341
341
340
340
340
339
338
338
334
334
333
332
329
328
327
327
327
326
325
325
323
323
322
318
316
315
315
315
314
314
313
312
310
310
310
308
308
307
306
305
305
304
303
301
301
300
300
299
299
298
298
298
295
295
295
294
290
290
290
288
287
286
285
284
283
282
282
281
273
272
272
271
271
270
270
267
266
265
265
262
262
261
261
259
259
259
257
255
255
254
254
253
248
248
247
246
246
244
244
243
241
239
238
238
238
237
236
235
235
234
233
233
233
232
231
231
230
229
228
228
227
227
227
226
225
225
225
224
224
222
222
221
218
217
216
215
215
215
214
212
211
210
209
209
209
209
208
208
207
207
206
205
204
203
202
200
198
198
197
197
196
196
194
194
192
192
191
190
190
189
188
187
186
185
184
181
178
178
178
176
176
175
174
174
174
173
173
173
173
173
172
172
171
168
168
167
167
167
166
165
164
162
162
160
160
159
159
159
158
157
156
156
155
155
154
153
150
150
148
147
146
145
145
144
143
143
143
142
140
140
138
138
138
137
134
134
134
133
132
132
131
130
130
130
130
130
130
127
127
126
126
124
124
123
122
121
121
121
121
120
120
120
120
120
118
117
117
116
116
116
115
115
113
113
113
113
111
111
111
110
109
109
109
107
106
105
105
104
103
101
101
101
